(set-logic QF_FPBV)
(set-info :source |Random FP created by PyMPF|)
(set-info :category random)
(set-info :status unsat)
;; fp.from.sbv(BitVec 32)
(declare-const x (_ BitVec 32))
(assert (bvsge x #b11111010100101000110100110000011))
;; x should be -90936957
(declare-const r Float32)
(assert (= r ((_ to_fp 8 24) RNA x)))
(assert (not (fp.geq r ((_ to_fp 8 24) #xCCAD72D0))))
(check-sat)
(exit)
